c Sudoku solution
p cnf 729 0
185 0
198 0
247 0
318 0
359 0
362 0
373 0
523 0
542 0
556 0
597 0
621 0
648 0
653 0
669 0
672 0
739 0
757 0
467 0
795 0
831 0
855 0
952 0
258 0
863 0
143 0
882 0
292 0
934 0
233 0
979 0
849 0
289 0
499 0
483 0
519 0
129 0
713 0
722 0
993 0
391 0
615 0
538 0
637 0
478 0
575 0
581 0
445 0
451 0
564 0
925 0
828 0
265 0
211 0
335 0
327 0
177 0
154 0
161 0
346 0
112 0
136 0
224 0
276 0
384 0
432 0
414 0
426 0
744 0
941 0
771 0
874 0
896 0
788 0
987 0
766 0
968 0
817 0
916 0
686 0
694 0
